/******************** OPTIMIZATION ********************/
/***** Optimization function (Exprsn. 1) *****/
MAX: Total_Biomass.finalAmountMols;
/***** The mols of total biomass equals the sum of the final mols of biomass in each organism type (Exprsn. 2) *****/
Total_Biomass.finalAmountMols = Het.finalAmountMols + Aut.finalAmountMols + Met.finalAmountMols;
/******************** INITIALIZATION ********************/
/***** Set initial mols of compounds (Exprsn. 3) & Initial mols of source/sink compounds must equal 0 (Exprsn. 4) *****/
Het.initialAmountMols = 0;
Aut.initialAmountMols = 0;
Met.initialAmountMols = 0;
DOM.initialAmountMols = 0;
CH4.initialAmountMols = 0;
NH4.initialAmountMols = 0;
NO3.initialAmountMols = 0;
O2.initialAmountMols = 0;
SO4.initialAmountMols = 0;
CO2.initialAmountMols = 0;
N2.initialAmountMols = 0;
HS.initialAmountMols = 0;
Ox.initialAmountMols = 0;
/***** Remove constraints on final mols of source/sink compounds (Exprsn. 5) *****/
-Inf < Ox.finalAmountMols < +Inf;
/***** Remove constraints on final mols of source/sink pools (Exprsn. 6) *****/
-Inf < Ox_O.finalAmountMols < +Inf;
-Inf < Ox_O.initialAmountMols < +Inf;
/***** The energies associated with decay, assimilatory, and dissimilatory processes are unconstrained here, but depend on parameterization of process energies (Exprsn. 7) *****/
-Inf < HetAssimDOM.energyJoules < +Inf;
-Inf < AutAssimCO2.energyJoules < +Inf;
-Inf < MetAssimCH4.energyJoules < +Inf;
-Inf < HetAssimNO3.energyJoules < +Inf;
-Inf < AutAssimNO3.energyJoules < +Inf;
-Inf < MetAssimNO3.energyJoules < +Inf;
-Inf < HetAssimNH4.energyJoules < +Inf;
-Inf < AutAssimNH4.energyJoules < +Inf;
-Inf < MetAssimNH4.energyJoules < +Inf;
-Inf < HetAssimSO4.energyJoules < +Inf;
-Inf < AutAssimSO4.energyJoules < +Inf;
-Inf < MetAssimSO4.energyJoules < +Inf;
-Inf < HetAssimHS.energyJoules < +Inf;
-Inf < AutAssimHS.energyJoules < +Inf;
-Inf < MetAssimHS.energyJoules < +Inf;
-Inf < HetAerobicofBiomass.energyJoules < +Inf;
-Inf < HetAerobicofDOM.energyJoules < +Inf;
-Inf < HetDenitofBiomass.energyJoules < +Inf;
-Inf < HetDenitofDOM.energyJoules < +Inf;
-Inf < HetSulfateRedofBiomass.energyJoules < +Inf;
-Inf < HetSulfateRedofDOM.energyJoules < +Inf;
-Inf < AutSulfideOxidation.energyJoules < +Inf;
-Inf < HetMethanogenesisofBiomass.energyJoules < +Inf;
-Inf < HetMethanogenesisofDOM.energyJoules < +Inf;
-Inf < AutNitrif.energyJoules < +Inf;
-Inf < MetMethaneOxid.energyJoules < +Inf;
-Inf < HetDecay.energyJoules < +Inf;
-Inf < AutDecay.energyJoules < +Inf;
-Inf < MetDecay.energyJoules < +Inf;
/***** The respiration rate associated with each organism type is a user-defined constant; therefore, the respiration energy associated with each organism type must be unconstrained. (Exprsn. 8) *****/
-Inf < Het.respirationEnergyJoules < +Inf;
-Inf < Aut.respirationEnergyJoules < +Inf;
-Inf < Met.respirationEnergyJoules < +Inf;
/******************** STOICHIOMETRY ********************/
/***** The initial mols of elemental pools must conform to compound stoichiometry (Exprsn. 9) *****/
Het_C.initialAmountMols = 1 Het.initialAmountMols;
Het_N.initialAmountMols = 0.150943396226415 Het.initialAmountMols;
Het_O.initialAmountMols = 1.0377358490566 Het.initialAmountMols;
Het_S.initialAmountMols = 0.0160377358490566 Het.initialAmountMols;
Aut_C.initialAmountMols = 1 Aut.initialAmountMols;
Aut_N.initialAmountMols = 0.150943396226415 Aut.initialAmountMols;
Aut_O.initialAmountMols = 1.0377358490566 Aut.initialAmountMols;
Aut_S.initialAmountMols = 0.0160377358490566 Aut.initialAmountMols;
Met_C.initialAmountMols = 1 Met.initialAmountMols;
Met_N.initialAmountMols = 0.150943396226415 Met.initialAmountMols;
Met_O.initialAmountMols = 1.0377358490566 Met.initialAmountMols;
Met_S.initialAmountMols = 0.0160377358490566 Met.initialAmountMols;
DOM_C.initialAmountMols = 1 DOM.initialAmountMols;
DOM_N.initialAmountMols = 0.150943396226415 DOM.initialAmountMols;
DOM_O.initialAmountMols = 1.0377358490566 DOM.initialAmountMols;
DOM_S.initialAmountMols = 0.0160377358490566 DOM.initialAmountMols;
CH4_C.initialAmountMols = 1 CH4.initialAmountMols;
NH4_N.initialAmountMols = 1 NH4.initialAmountMols;
NO3_N.initialAmountMols = 1 NO3.initialAmountMols;
NO3_O.initialAmountMols = 3 NO3.initialAmountMols;
O2_O.initialAmountMols = 2 O2.initialAmountMols;
SO4_S.initialAmountMols = 1 SO4.initialAmountMols;
SO4_O.initialAmountMols = 4 SO4.initialAmountMols;
CO2_C.initialAmountMols = 1 CO2.initialAmountMols;
CO2_O.initialAmountMols = 2 CO2.initialAmountMols;
N2_N.initialAmountMols = 2 N2.initialAmountMols;
HS_S.initialAmountMols = 1 HS.initialAmountMols;
Ox_O.initialAmountMols = 1 Ox.initialAmountMols;
/***** The final mols of elemental pools must conform to compound stoichiometry (Exprsn. 10) *****/
Het_C.finalAmountMols = 1 Het.finalAmountMols;
Het_N.finalAmountMols = 0.150943396226415 Het.finalAmountMols;
Het_O.finalAmountMols = 1.0377358490566 Het.finalAmountMols;
Het_S.finalAmountMols = 0.0160377358490566 Het.finalAmountMols;
Aut_C.finalAmountMols = 1 Aut.finalAmountMols;
Aut_N.finalAmountMols = 0.150943396226415 Aut.finalAmountMols;
Aut_O.finalAmountMols = 1.0377358490566 Aut.finalAmountMols;
Aut_S.finalAmountMols = 0.0160377358490566 Aut.finalAmountMols;
Met_C.finalAmountMols = 1 Met.finalAmountMols;
Met_N.finalAmountMols = 0.150943396226415 Met.finalAmountMols;
Met_O.finalAmountMols = 1.0377358490566 Met.finalAmountMols;
Met_S.finalAmountMols = 0.0160377358490566 Met.finalAmountMols;
DOM_C.finalAmountMols = 1 DOM.finalAmountMols;
DOM_N.finalAmountMols = 0.150943396226415 DOM.finalAmountMols;
DOM_O.finalAmountMols = 1.0377358490566 DOM.finalAmountMols;
DOM_S.finalAmountMols = 0.0160377358490566 DOM.finalAmountMols;
CH4_C.finalAmountMols = 1 CH4.finalAmountMols;
NH4_N.finalAmountMols = 1 NH4.finalAmountMols;
NO3_N.finalAmountMols = 1 NO3.finalAmountMols;
NO3_O.finalAmountMols = 3 NO3.finalAmountMols;
O2_O.finalAmountMols = 2 O2.finalAmountMols;
SO4_S.finalAmountMols = 1 SO4.finalAmountMols;
SO4_O.finalAmountMols = 4 SO4.finalAmountMols;
CO2_C.finalAmountMols = 1 CO2.finalAmountMols;
CO2_O.finalAmountMols = 2 CO2.finalAmountMols;
N2_N.finalAmountMols = 2 N2.finalAmountMols;
HS_S.finalAmountMols = 1 HS.finalAmountMols;
Ox_O.finalAmountMols = 1 Ox.finalAmountMols;
/******************** MOLAR TRANSFER ********************/
/***** The energy and molar transfer for each process must be in accordance with the stoichiometry and free energy yield of the process (Exprsn. 11) *****/
HetAssimDOM.energyJoules = -0.000432 HetAssimDOM_DOM_C_Het_C.amountMolsTransfer;
HetAssimDOM.energyJoules = -0.002862 HetAssimDOM_DOM_N_Het_N.amountMolsTransfer;
HetAssimDOM.energyJoules = -0.000416290909090909 HetAssimDOM_DOM_O_Het_O.amountMolsTransfer;
HetAssimDOM.energyJoules = -0.0269364705882353 HetAssimDOM_DOM_S_Het_S.amountMolsTransfer;
AutAssimCO2.energyJoules = -0.035 AutAssimCO2_CO2_C_Aut_C.amountMolsTransfer;
AutAssimCO2.energyJoules = -0.0337272727272727 AutAssimCO2_CO2_O_Aut_O.amountMolsTransfer;
AutAssimCO2.energyJoules = -0.0363725490196078 AutAssimCO2_CO2_O_Ox_O.amountMolsTransfer;
MetAssimCH4.energyJoules = -0.00109 MetAssimCH4_CH4_C_Met_C.amountMolsTransfer;
MetAssimCH4.energyJoules = -0.00105036363636364 MetAssimCH4_Ox_O_Met_O.amountMolsTransfer;
HetAssimNO3.energyJoules = -0.000155 HetAssimNO3_NO3_N_Het_N.amountMolsTransfer;
HetAssimNO3.energyJoules = -5.16666666666667e-05 HetAssimNO3_NO3_O_Ox_O.amountMolsTransfer;
AutAssimNO3.energyJoules = -0.000155 AutAssimNO3_NO3_N_Aut_N.amountMolsTransfer;
AutAssimNO3.energyJoules = -5.16666666666667e-05 AutAssimNO3_NO3_O_Ox_O.amountMolsTransfer;
MetAssimNO3.energyJoules = -0.000155 MetAssimNO3_NO3_N_Met_N.amountMolsTransfer;
MetAssimNO3.energyJoules = -5.16666666666667e-05 MetAssimNO3_NO3_O_Ox_O.amountMolsTransfer;
HetAssimNH4.energyJoules = -3.18e-05 HetAssimNH4_NH4_N_Het_N.amountMolsTransfer;
AutAssimNH4.energyJoules = -3.18e-05 AutAssimNH4_NH4_N_Aut_N.amountMolsTransfer;
MetAssimNH4.energyJoules = -3.18e-05 MetAssimNH4_NH4_N_Met_N.amountMolsTransfer;
HetAssimSO4.energyJoules = -9.28e-05 HetAssimSO4_SO4_S_Het_S.amountMolsTransfer;
HetAssimSO4.energyJoules = -2.32e-05 HetAssimSO4_SO4_O_Ox_O.amountMolsTransfer;
AutAssimSO4.energyJoules = -9.28e-05 AutAssimSO4_SO4_S_Aut_S.amountMolsTransfer;
AutAssimSO4.energyJoules = -2.32e-05 AutAssimSO4_SO4_O_Ox_O.amountMolsTransfer;
MetAssimSO4.energyJoules = -9.28e-05 MetAssimSO4_SO4_S_Met_S.amountMolsTransfer;
MetAssimSO4.energyJoules = -2.32e-05 MetAssimSO4_SO4_O_Ox_O.amountMolsTransfer;
HetAerobicofBiomass.energyJoules = 0.000437 HetAerobicofBiomass_Het_C_CO2_C.amountMolsTransfer;
HetAerobicofBiomass.energyJoules = 0.002895125 HetAerobicofBiomass_Het_N_NH4_N.amountMolsTransfer;
HetAerobicofBiomass.energyJoules = 0.000421109090909091 HetAerobicofBiomass_Het_O_Ox_O.amountMolsTransfer;
HetAerobicofBiomass.energyJoules = 0.0272482352941176 HetAerobicofBiomass_Het_S_HS_S.amountMolsTransfer;
HetAerobicofBiomass.energyJoules = 0.0002185 HetAerobicofBiomass_O2_O_CO2_O.amountMolsTransfer;
HetAerobicofDOM.energyJoules = 0.000437 HetAerobicofDOM_DOM_C_CO2_C.amountMolsTransfer;
HetAerobicofDOM.energyJoules = 0.002895125 HetAerobicofDOM_DOM_N_NH4_N.amountMolsTransfer;
HetAerobicofDOM.energyJoules = 0.000421109090909091 HetAerobicofDOM_DOM_O_Ox_O.amountMolsTransfer;
HetAerobicofDOM.energyJoules = 0.0272482352941176 HetAerobicofDOM_DOM_S_HS_S.amountMolsTransfer;
HetAerobicofDOM.energyJoules = 0.0002185 HetAerobicofDOM_O2_O_CO2_O.amountMolsTransfer;
HetDenitofBiomass.energyJoules = 0.0004102 HetDenitofBiomass_Het_C_CO2_C.amountMolsTransfer;
HetDenitofBiomass.energyJoules = 0.002717575 HetDenitofBiomass_Het_N_NH4_N.amountMolsTransfer;
HetDenitofBiomass.energyJoules = 0.000395283636363636 HetDenitofBiomass_Het_O_Ox_O.amountMolsTransfer;
HetDenitofBiomass.energyJoules = 0.0255771764705882 HetDenitofBiomass_Het_S_HS_S.amountMolsTransfer;
HetDenitofBiomass.energyJoules = 0.00051275 HetDenitofBiomass_NO3_N_N2_N.amountMolsTransfer;
HetDenitofBiomass.energyJoules = 0.0002051 HetDenitofBiomass_NO3_O_CO2_O.amountMolsTransfer;
HetDenitofBiomass.energyJoules = 0.0010255 HetDenitofBiomass_NO3_O_Ox_O.amountMolsTransfer;
HetDenitofDOM.energyJoules = 0.0004102 HetDenitofDOM_DOM_C_CO2_C.amountMolsTransfer;
HetDenitofDOM.energyJoules = 0.002717575 HetDenitofDOM_DOM_N_NH4_N.amountMolsTransfer;
HetDenitofDOM.energyJoules = 0.000395283636363636 HetDenitofDOM_DOM_O_Ox_O.amountMolsTransfer;
HetDenitofDOM.energyJoules = 0.0255771764705882 HetDenitofDOM_DOM_S_HS_S.amountMolsTransfer;
HetDenitofDOM.energyJoules = 0.00051275 HetDenitofDOM_NO3_N_N2_N.amountMolsTransfer;
HetDenitofDOM.energyJoules = 0.0002051 HetDenitofDOM_NO3_O_CO2_O.amountMolsTransfer;
HetDenitofDOM.energyJoules = 0.0010255 HetDenitofDOM_NO3_O_Ox_O.amountMolsTransfer;
HetSulfateRedofBiomass.energyJoules = 3.8e-05 HetSulfateRedofBiomass_Het_C_CO2_C.amountMolsTransfer;
HetSulfateRedofBiomass.energyJoules = 0.00025175 HetSulfateRedofBiomass_Het_N_NH4_N.amountMolsTransfer;
HetSulfateRedofBiomass.energyJoules = 3.66181818181818e-05 HetSulfateRedofBiomass_Het_O_Ox_O.amountMolsTransfer;
HetSulfateRedofBiomass.energyJoules = 0.00236941176470588 HetSulfateRedofBiomass_Het_S_HS_S.amountMolsTransfer;
HetSulfateRedofBiomass.energyJoules = 7.6e-05 HetSulfateRedofBiomass_SO4_S_HS_S.amountMolsTransfer;
HetSulfateRedofBiomass.energyJoules = 1.9e-05 HetSulfateRedofBiomass_SO4_O_CO2_O.amountMolsTransfer;
HetSulfateRedofDOM.energyJoules = 3.8e-05 HetSulfateRedofDOM_DOM_C_CO2_C.amountMolsTransfer;
HetSulfateRedofDOM.energyJoules = 0.00025175 HetSulfateRedofDOM_DOM_N_NH4_N.amountMolsTransfer;
HetSulfateRedofDOM.energyJoules = 3.66181818181818e-05 HetSulfateRedofDOM_DOM_O_Ox_O.amountMolsTransfer;
HetSulfateRedofDOM.energyJoules = 0.00236941176470588 HetSulfateRedofDOM_DOM_S_HS_S.amountMolsTransfer;
HetSulfateRedofDOM.energyJoules = 7.6e-05 HetSulfateRedofDOM_SO4_S_HS_S.amountMolsTransfer;
HetSulfateRedofDOM.energyJoules = 1.9e-05 HetSulfateRedofDOM_SO4_O_CO2_O.amountMolsTransfer;
AutSulfideOxidation.energyJoules = 0.0007966 AutSulfideOxidation_HS_S_SO4_S.amountMolsTransfer;
AutSulfideOxidation.energyJoules = 0.00019915 AutSulfideOxidation_O2_O_SO4_O.amountMolsTransfer;
HetMethanogenesisofBiomass.energyJoules = 5.6e-05 HetMethanogenesisofBiomass_Het_C_CO2_C.amountMolsTransfer;
HetMethanogenesisofBiomass.energyJoules = 5.6e-05 HetMethanogenesisofBiomass_Het_C_CH4_C.amountMolsTransfer;
HetMethanogenesisofBiomass.energyJoules = 0.0001855 HetMethanogenesisofBiomass_Het_N_NH4_N.amountMolsTransfer;
HetMethanogenesisofBiomass.energyJoules = 2.69818181818182e-05 HetMethanogenesisofBiomass_Het_O_Ox_O.amountMolsTransfer;
HetMethanogenesisofBiomass.energyJoules = 0.00174588235294118 HetMethanogenesisofBiomass_Het_S_HS_S.amountMolsTransfer;
HetMethanogenesisofBiomass.energyJoules = 2.8e-05 HetMethanogenesisofBiomass_Ox_O_CO2_O.amountMolsTransfer;
HetMethanogenesisofDOM.energyJoules = 5.6e-05 HetMethanogenesisofDOM_DOM_C_CO2_C.amountMolsTransfer;
HetMethanogenesisofDOM.energyJoules = 5.6e-05 HetMethanogenesisofDOM_DOM_C_CH4_C.amountMolsTransfer;
HetMethanogenesisofDOM.energyJoules = 0.0001855 HetMethanogenesisofDOM_DOM_N_NH4_N.amountMolsTransfer;
HetMethanogenesisofDOM.energyJoules = 2.69818181818182e-05 HetMethanogenesisofDOM_DOM_O_Ox_O.amountMolsTransfer;
HetMethanogenesisofDOM.energyJoules = 0.00174588235294118 HetMethanogenesisofDOM_DOM_S_HS_S.amountMolsTransfer;
HetMethanogenesisofDOM.energyJoules = 2.8e-05 HetMethanogenesisofDOM_Ox_O_CO2_O.amountMolsTransfer;
AutNitrif.energyJoules = 0.0003485 AutNitrif_NH4_N_NO3_N.amountMolsTransfer;
AutNitrif.energyJoules = 0.000116166666666667 AutNitrif_O2_O_NO3_O.amountMolsTransfer;
AutNitrif.energyJoules = 0.0003485 AutNitrif_O2_O_Ox_O.amountMolsTransfer;
MetMethaneOxid.energyJoules = 0.000818 MetMethaneOxid_CH4_C_CO2_C.amountMolsTransfer;
MetMethaneOxid.energyJoules = 0.000409 MetMethaneOxid_O2_O_CO2_O.amountMolsTransfer;
MetMethaneOxid.energyJoules = 0.000409 MetMethaneOxid_O2_O_Ox_O.amountMolsTransfer;
/******************** ELEMENTAL MOLAR BALANCE ********************/
/***** The mols of each elemental pool must be conserved (Exprsn. 12) *****/
Het_C.finalAmountMols = Het_C.initialAmountMols + HetAssimDOM_DOM_C_Het_C.amountMolsTransfer - HetAerobicofBiomass_Het_C_CO2_C.amountMolsTransfer - HetDenitofBiomass_Het_C_CO2_C.amountMolsTransfer - HetSulfateRedofBiomass_Het_C_CO2_C.amountMolsTransfer - HetMethanogenesisofBiomass_Het_C_CO2_C.amountMolsTransfer - HetMethanogenesisofBiomass_Het_C_CH4_C.amountMolsTransfer - HetDecay_Het_C_DOM_C.amountMolsTransfer;
Het_N.finalAmountMols = Het_N.initialAmountMols + HetAssimDOM_DOM_N_Het_N.amountMolsTransfer + HetAssimNO3_NO3_N_Het_N.amountMolsTransfer + HetAssimNH4_NH4_N_Het_N.amountMolsTransfer - HetAerobicofBiomass_Het_N_NH4_N.amountMolsTransfer - HetDenitofBiomass_Het_N_NH4_N.amountMolsTransfer - HetSulfateRedofBiomass_Het_N_NH4_N.amountMolsTransfer - HetMethanogenesisofBiomass_Het_N_NH4_N.amountMolsTransfer - HetDecay_Het_N_DOM_N.amountMolsTransfer;
Het_O.finalAmountMols = Het_O.initialAmountMols + HetAssimDOM_DOM_O_Het_O.amountMolsTransfer - HetAerobicofBiomass_Het_O_Ox_O.amountMolsTransfer - HetDenitofBiomass_Het_O_Ox_O.amountMolsTransfer - HetSulfateRedofBiomass_Het_O_Ox_O.amountMolsTransfer - HetMethanogenesisofBiomass_Het_O_Ox_O.amountMolsTransfer - HetDecay_Het_O_DOM_O.amountMolsTransfer;
Het_S.finalAmountMols = Het_S.initialAmountMols + HetAssimDOM_DOM_S_Het_S.amountMolsTransfer + HetAssimSO4_SO4_S_Het_S.amountMolsTransfer + HetAssimHS_HS_S_Het_S.amountMolsTransfer - HetAerobicofBiomass_Het_S_HS_S.amountMolsTransfer - HetDenitofBiomass_Het_S_HS_S.amountMolsTransfer - HetSulfateRedofBiomass_Het_S_HS_S.amountMolsTransfer - HetMethanogenesisofBiomass_Het_S_HS_S.amountMolsTransfer - HetDecay_Het_S_DOM_S.amountMolsTransfer;
Aut_C.finalAmountMols = Aut_C.initialAmountMols + AutAssimCO2_CO2_C_Aut_C.amountMolsTransfer - AutDecay_Aut_C_DOM_C.amountMolsTransfer;
Aut_N.finalAmountMols = Aut_N.initialAmountMols + AutAssimNO3_NO3_N_Aut_N.amountMolsTransfer + AutAssimNH4_NH4_N_Aut_N.amountMolsTransfer - AutDecay_Aut_N_DOM_N.amountMolsTransfer;
Aut_O.finalAmountMols = Aut_O.initialAmountMols + AutAssimCO2_CO2_O_Aut_O.amountMolsTransfer - AutDecay_Aut_O_DOM_O.amountMolsTransfer;
Aut_S.finalAmountMols = Aut_S.initialAmountMols + AutAssimSO4_SO4_S_Aut_S.amountMolsTransfer + AutAssimHS_HS_S_Aut_S.amountMolsTransfer - AutDecay_Aut_S_DOM_S.amountMolsTransfer;
Met_C.finalAmountMols = Met_C.initialAmountMols + MetAssimCH4_CH4_C_Met_C.amountMolsTransfer - MetDecay_Met_C_DOM_C.amountMolsTransfer;
Met_N.finalAmountMols = Met_N.initialAmountMols + MetAssimNO3_NO3_N_Met_N.amountMolsTransfer + MetAssimNH4_NH4_N_Met_N.amountMolsTransfer - MetDecay_Met_N_DOM_N.amountMolsTransfer;
Met_O.finalAmountMols = Met_O.initialAmountMols + MetAssimCH4_Ox_O_Met_O.amountMolsTransfer - MetDecay_Met_O_DOM_O.amountMolsTransfer;
Met_S.finalAmountMols = Met_S.initialAmountMols + MetAssimSO4_SO4_S_Met_S.amountMolsTransfer + MetAssimHS_HS_S_Met_S.amountMolsTransfer - MetDecay_Met_S_DOM_S.amountMolsTransfer;
DOM_C.finalAmountMols = DOM_C.initialAmountMols + HetDecay_Het_C_DOM_C.amountMolsTransfer + AutDecay_Aut_C_DOM_C.amountMolsTransfer + MetDecay_Met_C_DOM_C.amountMolsTransfer - HetAssimDOM_DOM_C_Het_C.amountMolsTransfer - HetAerobicofDOM_DOM_C_CO2_C.amountMolsTransfer - HetDenitofDOM_DOM_C_CO2_C.amountMolsTransfer - HetSulfateRedofDOM_DOM_C_CO2_C.amountMolsTransfer - HetMethanogenesisofDOM_DOM_C_CO2_C.amountMolsTransfer - HetMethanogenesisofDOM_DOM_C_CH4_C.amountMolsTransfer;
DOM_N.finalAmountMols = DOM_N.initialAmountMols + HetDecay_Het_N_DOM_N.amountMolsTransfer + AutDecay_Aut_N_DOM_N.amountMolsTransfer + MetDecay_Met_N_DOM_N.amountMolsTransfer - HetAssimDOM_DOM_N_Het_N.amountMolsTransfer - HetAerobicofDOM_DOM_N_NH4_N.amountMolsTransfer - HetDenitofDOM_DOM_N_NH4_N.amountMolsTransfer - HetSulfateRedofDOM_DOM_N_NH4_N.amountMolsTransfer - HetMethanogenesisofDOM_DOM_N_NH4_N.amountMolsTransfer;
DOM_O.finalAmountMols = DOM_O.initialAmountMols + HetDecay_Het_O_DOM_O.amountMolsTransfer + AutDecay_Aut_O_DOM_O.amountMolsTransfer + MetDecay_Met_O_DOM_O.amountMolsTransfer - HetAssimDOM_DOM_O_Het_O.amountMolsTransfer - HetAerobicofDOM_DOM_O_Ox_O.amountMolsTransfer - HetDenitofDOM_DOM_O_Ox_O.amountMolsTransfer - HetSulfateRedofDOM_DOM_O_Ox_O.amountMolsTransfer - HetMethanogenesisofDOM_DOM_O_Ox_O.amountMolsTransfer;
DOM_S.finalAmountMols = DOM_S.initialAmountMols + HetDecay_Het_S_DOM_S.amountMolsTransfer + AutDecay_Aut_S_DOM_S.amountMolsTransfer + MetDecay_Met_S_DOM_S.amountMolsTransfer - HetAssimDOM_DOM_S_Het_S.amountMolsTransfer - HetAerobicofDOM_DOM_S_HS_S.amountMolsTransfer - HetDenitofDOM_DOM_S_HS_S.amountMolsTransfer - HetSulfateRedofDOM_DOM_S_HS_S.amountMolsTransfer - HetMethanogenesisofDOM_DOM_S_HS_S.amountMolsTransfer;
CH4_C.finalAmountMols = CH4_C.initialAmountMols + HetMethanogenesisofBiomass_Het_C_CH4_C.amountMolsTransfer + HetMethanogenesisofDOM_DOM_C_CH4_C.amountMolsTransfer - MetAssimCH4_CH4_C_Met_C.amountMolsTransfer - MetMethaneOxid_CH4_C_CO2_C.amountMolsTransfer;
NH4_N.finalAmountMols = NH4_N.initialAmountMols + HetAerobicofBiomass_Het_N_NH4_N.amountMolsTransfer + HetAerobicofDOM_DOM_N_NH4_N.amountMolsTransfer + HetDenitofBiomass_Het_N_NH4_N.amountMolsTransfer + HetDenitofDOM_DOM_N_NH4_N.amountMolsTransfer + HetSulfateRedofBiomass_Het_N_NH4_N.amountMolsTransfer + HetSulfateRedofDOM_DOM_N_NH4_N.amountMolsTransfer + HetMethanogenesisofBiomass_Het_N_NH4_N.amountMolsTransfer + HetMethanogenesisofDOM_DOM_N_NH4_N.amountMolsTransfer - HetAssimNH4_NH4_N_Het_N.amountMolsTransfer - AutAssimNH4_NH4_N_Aut_N.amountMolsTransfer - MetAssimNH4_NH4_N_Met_N.amountMolsTransfer - AutNitrif_NH4_N_NO3_N.amountMolsTransfer;
NO3_N.finalAmountMols = NO3_N.initialAmountMols + AutNitrif_NH4_N_NO3_N.amountMolsTransfer - HetAssimNO3_NO3_N_Het_N.amountMolsTransfer - AutAssimNO3_NO3_N_Aut_N.amountMolsTransfer - MetAssimNO3_NO3_N_Met_N.amountMolsTransfer - HetDenitofBiomass_NO3_N_N2_N.amountMolsTransfer - HetDenitofDOM_NO3_N_N2_N.amountMolsTransfer;
NO3_O.finalAmountMols = NO3_O.initialAmountMols + AutNitrif_O2_O_NO3_O.amountMolsTransfer - HetAssimNO3_NO3_O_Ox_O.amountMolsTransfer - AutAssimNO3_NO3_O_Ox_O.amountMolsTransfer - MetAssimNO3_NO3_O_Ox_O.amountMolsTransfer - HetDenitofBiomass_NO3_O_CO2_O.amountMolsTransfer - HetDenitofBiomass_NO3_O_Ox_O.amountMolsTransfer - HetDenitofDOM_NO3_O_CO2_O.amountMolsTransfer - HetDenitofDOM_NO3_O_Ox_O.amountMolsTransfer;
O2_O.finalAmountMols = O2_O.initialAmountMols - HetAerobicofBiomass_O2_O_CO2_O.amountMolsTransfer - HetAerobicofDOM_O2_O_CO2_O.amountMolsTransfer - AutSulfideOxidation_O2_O_SO4_O.amountMolsTransfer - AutNitrif_O2_O_NO3_O.amountMolsTransfer - AutNitrif_O2_O_Ox_O.amountMolsTransfer - MetMethaneOxid_O2_O_CO2_O.amountMolsTransfer - MetMethaneOxid_O2_O_Ox_O.amountMolsTransfer;
SO4_S.finalAmountMols = SO4_S.initialAmountMols + AutSulfideOxidation_HS_S_SO4_S.amountMolsTransfer - HetAssimSO4_SO4_S_Het_S.amountMolsTransfer - AutAssimSO4_SO4_S_Aut_S.amountMolsTransfer - MetAssimSO4_SO4_S_Met_S.amountMolsTransfer - HetSulfateRedofBiomass_SO4_S_HS_S.amountMolsTransfer - HetSulfateRedofDOM_SO4_S_HS_S.amountMolsTransfer;
SO4_O.finalAmountMols = SO4_O.initialAmountMols + AutSulfideOxidation_O2_O_SO4_O.amountMolsTransfer - HetAssimSO4_SO4_O_Ox_O.amountMolsTransfer - AutAssimSO4_SO4_O_Ox_O.amountMolsTransfer - MetAssimSO4_SO4_O_Ox_O.amountMolsTransfer - HetSulfateRedofBiomass_SO4_O_CO2_O.amountMolsTransfer - HetSulfateRedofDOM_SO4_O_CO2_O.amountMolsTransfer;
CO2_C.finalAmountMols = CO2_C.initialAmountMols + HetAerobicofBiomass_Het_C_CO2_C.amountMolsTransfer + HetAerobicofDOM_DOM_C_CO2_C.amountMolsTransfer + HetDenitofBiomass_Het_C_CO2_C.amountMolsTransfer + HetDenitofDOM_DOM_C_CO2_C.amountMolsTransfer + HetSulfateRedofBiomass_Het_C_CO2_C.amountMolsTransfer + HetSulfateRedofDOM_DOM_C_CO2_C.amountMolsTransfer + HetMethanogenesisofBiomass_Het_C_CO2_C.amountMolsTransfer + HetMethanogenesisofDOM_DOM_C_CO2_C.amountMolsTransfer + MetMethaneOxid_CH4_C_CO2_C.amountMolsTransfer - AutAssimCO2_CO2_C_Aut_C.amountMolsTransfer;
CO2_O.finalAmountMols = CO2_O.initialAmountMols + HetAerobicofBiomass_O2_O_CO2_O.amountMolsTransfer + HetAerobicofDOM_O2_O_CO2_O.amountMolsTransfer + HetDenitofBiomass_NO3_O_CO2_O.amountMolsTransfer + HetDenitofDOM_NO3_O_CO2_O.amountMolsTransfer + HetSulfateRedofBiomass_SO4_O_CO2_O.amountMolsTransfer + HetSulfateRedofDOM_SO4_O_CO2_O.amountMolsTransfer + HetMethanogenesisofBiomass_Ox_O_CO2_O.amountMolsTransfer + HetMethanogenesisofDOM_Ox_O_CO2_O.amountMolsTransfer + MetMethaneOxid_O2_O_CO2_O.amountMolsTransfer - AutAssimCO2_CO2_O_Aut_O.amountMolsTransfer - AutAssimCO2_CO2_O_Ox_O.amountMolsTransfer;
N2_N.finalAmountMols = N2_N.initialAmountMols + HetDenitofBiomass_NO3_N_N2_N.amountMolsTransfer + HetDenitofDOM_NO3_N_N2_N.amountMolsTransfer;
HS_S.finalAmountMols = HS_S.initialAmountMols + HetAerobicofBiomass_Het_S_HS_S.amountMolsTransfer + HetAerobicofDOM_DOM_S_HS_S.amountMolsTransfer + HetDenitofBiomass_Het_S_HS_S.amountMolsTransfer + HetDenitofDOM_DOM_S_HS_S.amountMolsTransfer + HetSulfateRedofBiomass_Het_S_HS_S.amountMolsTransfer + HetSulfateRedofBiomass_SO4_S_HS_S.amountMolsTransfer + HetSulfateRedofDOM_DOM_S_HS_S.amountMolsTransfer + HetSulfateRedofDOM_SO4_S_HS_S.amountMolsTransfer + HetMethanogenesisofBiomass_Het_S_HS_S.amountMolsTransfer + HetMethanogenesisofDOM_DOM_S_HS_S.amountMolsTransfer - HetAssimHS_HS_S_Het_S.amountMolsTransfer - AutAssimHS_HS_S_Aut_S.amountMolsTransfer - MetAssimHS_HS_S_Met_S.amountMolsTransfer - AutSulfideOxidation_HS_S_SO4_S.amountMolsTransfer;
Ox_O.finalAmountMols = Ox_O.initialAmountMols + AutAssimCO2_CO2_O_Ox_O.amountMolsTransfer + HetAssimNO3_NO3_O_Ox_O.amountMolsTransfer + AutAssimNO3_NO3_O_Ox_O.amountMolsTransfer + MetAssimNO3_NO3_O_Ox_O.amountMolsTransfer + HetAssimSO4_SO4_O_Ox_O.amountMolsTransfer + AutAssimSO4_SO4_O_Ox_O.amountMolsTransfer + MetAssimSO4_SO4_O_Ox_O.amountMolsTransfer + HetAerobicofBiomass_Het_O_Ox_O.amountMolsTransfer + HetAerobicofDOM_DOM_O_Ox_O.amountMolsTransfer + HetDenitofBiomass_Het_O_Ox_O.amountMolsTransfer + HetDenitofBiomass_NO3_O_Ox_O.amountMolsTransfer + HetDenitofDOM_DOM_O_Ox_O.amountMolsTransfer + HetDenitofDOM_NO3_O_Ox_O.amountMolsTransfer + HetSulfateRedofBiomass_Het_O_Ox_O.amountMolsTransfer + HetSulfateRedofDOM_DOM_O_Ox_O.amountMolsTransfer + HetMethanogenesisofBiomass_Het_O_Ox_O.amountMolsTransfer + HetMethanogenesisofDOM_DOM_O_Ox_O.amountMolsTransfer + AutNitrif_O2_O_Ox_O.amountMolsTransfer + MetMethaneOxid_O2_O_Ox_O.amountMolsTransfer - MetAssimCH4_Ox_O_Met_O.amountMolsTransfer - HetMethanogenesisofBiomass_Ox_O_CO2_O.amountMolsTransfer - HetMethanogenesisofDOM_Ox_O_CO2_O.amountMolsTransfer;
/***** Generally, molar transfers from each pool must be less than the initial mols of the pool (Exprsn. 13) *****/
Het_C.initialAmountMols >= HetAerobicofBiomass_Het_C_CO2_C.amountMolsTransfer + HetDenitofBiomass_Het_C_CO2_C.amountMolsTransfer + HetSulfateRedofBiomass_Het_C_CO2_C.amountMolsTransfer + HetMethanogenesisofBiomass_Het_C_CO2_C.amountMolsTransfer + HetMethanogenesisofBiomass_Het_C_CH4_C.amountMolsTransfer + HetDecay_Het_C_DOM_C.amountMolsTransfer;
Het_N.initialAmountMols >= HetAerobicofBiomass_Het_N_NH4_N.amountMolsTransfer + HetDenitofBiomass_Het_N_NH4_N.amountMolsTransfer + HetSulfateRedofBiomass_Het_N_NH4_N.amountMolsTransfer + HetMethanogenesisofBiomass_Het_N_NH4_N.amountMolsTransfer + HetDecay_Het_N_DOM_N.amountMolsTransfer;
Het_O.initialAmountMols >= HetAerobicofBiomass_Het_O_Ox_O.amountMolsTransfer + HetDenitofBiomass_Het_O_Ox_O.amountMolsTransfer + HetSulfateRedofBiomass_Het_O_Ox_O.amountMolsTransfer + HetMethanogenesisofBiomass_Het_O_Ox_O.amountMolsTransfer + HetDecay_Het_O_DOM_O.amountMolsTransfer;
Het_S.initialAmountMols >= HetAerobicofBiomass_Het_S_HS_S.amountMolsTransfer + HetDenitofBiomass_Het_S_HS_S.amountMolsTransfer + HetSulfateRedofBiomass_Het_S_HS_S.amountMolsTransfer + HetMethanogenesisofBiomass_Het_S_HS_S.amountMolsTransfer + HetDecay_Het_S_DOM_S.amountMolsTransfer;
Aut_C.initialAmountMols >= AutDecay_Aut_C_DOM_C.amountMolsTransfer;
Aut_N.initialAmountMols >= AutDecay_Aut_N_DOM_N.amountMolsTransfer;
Aut_O.initialAmountMols >= AutDecay_Aut_O_DOM_O.amountMolsTransfer;
Aut_S.initialAmountMols >= AutDecay_Aut_S_DOM_S.amountMolsTransfer;
Met_C.initialAmountMols >= MetDecay_Met_C_DOM_C.amountMolsTransfer;
Met_N.initialAmountMols >= MetDecay_Met_N_DOM_N.amountMolsTransfer;
Met_O.initialAmountMols >= MetDecay_Met_O_DOM_O.amountMolsTransfer;
Met_S.initialAmountMols >= MetDecay_Met_S_DOM_S.amountMolsTransfer;
DOM_C.initialAmountMols >= HetAssimDOM_DOM_C_Het_C.amountMolsTransfer + HetAerobicofDOM_DOM_C_CO2_C.amountMolsTransfer + HetDenitofDOM_DOM_C_CO2_C.amountMolsTransfer + HetSulfateRedofDOM_DOM_C_CO2_C.amountMolsTransfer + HetMethanogenesisofDOM_DOM_C_CO2_C.amountMolsTransfer + HetMethanogenesisofDOM_DOM_C_CH4_C.amountMolsTransfer;
DOM_N.initialAmountMols >= HetAssimDOM_DOM_N_Het_N.amountMolsTransfer + HetAerobicofDOM_DOM_N_NH4_N.amountMolsTransfer + HetDenitofDOM_DOM_N_NH4_N.amountMolsTransfer + HetSulfateRedofDOM_DOM_N_NH4_N.amountMolsTransfer + HetMethanogenesisofDOM_DOM_N_NH4_N.amountMolsTransfer;
DOM_O.initialAmountMols >= HetAssimDOM_DOM_O_Het_O.amountMolsTransfer + HetAerobicofDOM_DOM_O_Ox_O.amountMolsTransfer + HetDenitofDOM_DOM_O_Ox_O.amountMolsTransfer + HetSulfateRedofDOM_DOM_O_Ox_O.amountMolsTransfer + HetMethanogenesisofDOM_DOM_O_Ox_O.amountMolsTransfer;
DOM_S.initialAmountMols >= HetAssimDOM_DOM_S_Het_S.amountMolsTransfer + HetAerobicofDOM_DOM_S_HS_S.amountMolsTransfer + HetDenitofDOM_DOM_S_HS_S.amountMolsTransfer + HetSulfateRedofDOM_DOM_S_HS_S.amountMolsTransfer + HetMethanogenesisofDOM_DOM_S_HS_S.amountMolsTransfer;
CH4_C.initialAmountMols >= MetAssimCH4_CH4_C_Met_C.amountMolsTransfer + MetMethaneOxid_CH4_C_CO2_C.amountMolsTransfer;
NH4_N.initialAmountMols >= AutAssimNH4_NH4_N_Aut_N.amountMolsTransfer + MetAssimNH4_NH4_N_Met_N.amountMolsTransfer + AutNitrif_NH4_N_NO3_N.amountMolsTransfer;
NO3_N.initialAmountMols >= HetAssimNO3_NO3_N_Het_N.amountMolsTransfer + AutAssimNO3_NO3_N_Aut_N.amountMolsTransfer + MetAssimNO3_NO3_N_Met_N.amountMolsTransfer + HetDenitofBiomass_NO3_N_N2_N.amountMolsTransfer + HetDenitofDOM_NO3_N_N2_N.amountMolsTransfer;
NO3_O.initialAmountMols >= HetAssimNO3_NO3_O_Ox_O.amountMolsTransfer + AutAssimNO3_NO3_O_Ox_O.amountMolsTransfer + MetAssimNO3_NO3_O_Ox_O.amountMolsTransfer + HetDenitofBiomass_NO3_O_CO2_O.amountMolsTransfer + HetDenitofBiomass_NO3_O_Ox_O.amountMolsTransfer + HetDenitofDOM_NO3_O_CO2_O.amountMolsTransfer + HetDenitofDOM_NO3_O_Ox_O.amountMolsTransfer;
O2_O.initialAmountMols >= HetAerobicofBiomass_O2_O_CO2_O.amountMolsTransfer + HetAerobicofDOM_O2_O_CO2_O.amountMolsTransfer + AutSulfideOxidation_O2_O_SO4_O.amountMolsTransfer + AutNitrif_O2_O_NO3_O.amountMolsTransfer + AutNitrif_O2_O_Ox_O.amountMolsTransfer + MetMethaneOxid_O2_O_CO2_O.amountMolsTransfer + MetMethaneOxid_O2_O_Ox_O.amountMolsTransfer;
SO4_S.initialAmountMols >= HetAssimSO4_SO4_S_Het_S.amountMolsTransfer + AutAssimSO4_SO4_S_Aut_S.amountMolsTransfer + MetAssimSO4_SO4_S_Met_S.amountMolsTransfer + HetSulfateRedofBiomass_SO4_S_HS_S.amountMolsTransfer + HetSulfateRedofDOM_SO4_S_HS_S.amountMolsTransfer;
SO4_O.initialAmountMols >= HetAssimSO4_SO4_O_Ox_O.amountMolsTransfer + AutAssimSO4_SO4_O_Ox_O.amountMolsTransfer + MetAssimSO4_SO4_O_Ox_O.amountMolsTransfer + HetSulfateRedofBiomass_SO4_O_CO2_O.amountMolsTransfer + HetSulfateRedofDOM_SO4_O_CO2_O.amountMolsTransfer;
CO2_C.initialAmountMols >= AutAssimCO2_CO2_C_Aut_C.amountMolsTransfer;
CO2_O.initialAmountMols >= AutAssimCO2_CO2_O_Aut_O.amountMolsTransfer + AutAssimCO2_CO2_O_Ox_O.amountMolsTransfer;
HS_S.initialAmountMols >= HetAssimHS_HS_S_Het_S.amountMolsTransfer + AutAssimHS_HS_S_Aut_S.amountMolsTransfer + MetAssimHS_HS_S_Met_S.amountMolsTransfer + AutSulfideOxidation_HS_S_SO4_S.amountMolsTransfer;
/******************** ENERGETIC CONSTRAINTS ********************/
/***** Maintenance respiration energy must be proportional to mols of biomass (Exprsn. 14) *****/
Het.respirationEnergyJoules = -6.792e-05 Het.finalAmountMols;
Aut.respirationEnergyJoules = -6.792e-05 Aut.finalAmountMols;
Met.respirationEnergyJoules = -6.792e-05 Met.finalAmountMols;
/***** The net energy associated with assimilatory and dissimilatory processes must equal the summed energy of each assimilatory and dissimilatory process  (Exprsn. 15) *****/
Het.energyJoules = HetAssimDOM.energyJoules + HetAssimNO3.energyJoules + HetAssimNH4.energyJoules + HetAssimSO4.energyJoules + HetAerobicofBiomass.energyJoules + HetAerobicofDOM.energyJoules + HetDenitofBiomass.energyJoules + HetDenitofDOM.energyJoules + HetSulfateRedofBiomass.energyJoules + HetSulfateRedofDOM.energyJoules + HetMethanogenesisofBiomass.energyJoules + HetMethanogenesisofDOM.energyJoules;
Aut.energyJoules = AutAssimCO2.energyJoules + AutAssimNO3.energyJoules + AutAssimNH4.energyJoules + AutAssimSO4.energyJoules + AutSulfideOxidation.energyJoules + AutNitrif.energyJoules;
Met.energyJoules = MetAssimCH4.energyJoules + MetAssimNO3.energyJoules + MetAssimNH4.energyJoules + MetAssimSO4.energyJoules + MetMethaneOxid.energyJoules;
/***** Organisms must meet their respiratory energy demands (Exprsn. 16) *****/
0 = Het.respirationEnergyJoules + Het.energyJoules;
0 = Aut.respirationEnergyJoules + Aut.energyJoules;
0 = Met.respirationEnergyJoules + Met.energyJoules;
